c Created with the Wolfram Language : www.wolfram.com
c 
p edge 100 772
e 2 4
e 4 5
e 4 6
e 5 8
e 6 9
e 3 10
e 1 11
e 1 12
e 7 12
e 9 12
e 11 13
e 1 14
e 5 14
e 6 14
e 11 14
e 2 15
e 5 15
e 11 15
e 2 16
e 9 16
e 12 16
e 7 17
e 16 17
e 5 18
e 6 18
e 12 18
e 16 18
e 2 19
e 4 19
e 6 19
e 7 19
e 17 19
e 12 20
e 16 20
e 9 21
e 14 21
e 20 21
e 5 22
e 9 22
e 10 22
e 13 22
e 17 22
e 4 23
e 15 23
e 19 23
e 6 24
e 11 24
e 1 25
e 10 25
e 11 25
e 18 25
e 19 25
e 10 26
e 11 26
e 15 26
e 5 27
e 12 27
e 17 27
e 15 28
e 22 28
e 25 28
e 2 29
e 9 29
e 10 29
e 16 29
e 20 29
e 23 29
e 24 29
e 5 30
e 15 30
e 16 30
e 17 30
e 19 30
e 24 30
e 9 31
e 11 31
e 16 31
e 11 32
e 17 32
e 18 32
e 23 32
e 2 33
e 3 33
e 7 33
e 16 33
e 19 33
e 5 34
e 16 34
e 17 34
e 18 34
e 25 34
e 27 34
e 31 34
e 7 35
e 14 35
e 27 35
e 31 35
e 33 35
e 2 36
e 6 36
e 13 36
e 21 36
e 11 37
e 30 37
e 35 37
e 1 38
e 10 38
e 16 38
e 19 38
e 28 38
e 30 38
e 32 38
e 36 38
e 11 39
e 22 39
e 26 39
e 32 39
e 5 40
e 11 40
e 21 40
e 30 40
e 31 40
e 36 40
e 37 40
e 11 41
e 17 41
e 19 41
e 24 41
e 26 41
e 34 41
e 40 41
e 26 42
e 36 42
e 37 42
e 13 43
e 22 43
e 35 43
e 39 43
e 42 43
e 10 44
e 13 44
e 23 44
e 26 44
e 32 44
e 3 45
e 9 45
e 17 45
e 20 45
e 21 45
e 23 45
e 25 45
e 28 45
e 32 45
e 36 45
e 39 45
e 3 46
e 6 46
e 17 46
e 19 46
e 26 46
e 27 46
e 30 46
e 31 46
e 36 46
e 39 46
e 6 47
e 9 47
e 18 47
e 26 47
e 43 47
e 44 47
e 45 47
e 2 48
e 6 48
e 10 48
e 27 48
e 38 48
e 7 49
e 9 49
e 21 49
e 25 49
e 27 49
e 32 49
e 39 49
e 40 49
e 4 50
e 5 50
e 22 50
e 26 50
e 31 50
e 32 50
e 12 51
e 16 51
e 23 51
e 33 51
e 38 51
e 48 51
e 49 51
e 2 52
e 5 52
e 7 52
e 9 52
e 26 52
e 32 52
e 38 52
e 42 52
e 45 52
e 48 52
e 1 53
e 2 53
e 7 53
e 14 53
e 23 53
e 24 53
e 39 53
e 41 53
e 44 53
e 45 53
e 2 54
e 16 54
e 17 54
e 18 54
e 20 54
e 25 54
e 39 54
e 46 54
e 51 54
e 5 55
e 7 55
e 9 55
e 11 55
e 13 55
e 25 55
e 29 55
e 33 55
e 36 55
e 38 55
e 40 55
e 44 55
e 49 55
e 1 56
e 11 56
e 27 56
e 34 56
e 37 56
e 40 56
e 41 56
e 45 56
e 48 56
e 49 56
e 1 57
e 2 57
e 4 57
e 10 57
e 14 57
e 16 57
e 20 57
e 29 57
e 54 57
e 56 57
e 15 58
e 24 58
e 30 58
e 34 58
e 37 58
e 46 58
e 57 58
e 9 59
e 20 59
e 27 59
e 36 59
e 37 59
e 41 59
e 56 59
e 4 60
e 7 60
e 12 60
e 16 60
e 26 60
e 43 60
e 45 60
e 49 60
e 52 60
e 56 60
e 7 61
e 11 61
e 12 61
e 32 61
e 37 61
e 39 61
e 43 61
e 44 61
e 45 61
e 51 61
e 52 61
e 59 61
e 21 62
e 24 62
e 31 62
e 38 62
e 53 62
e 56 62
e 59 62
e 1 63
e 4 63
e 6 63
e 10 63
e 15 63
e 20 63
e 31 63
e 37 63
e 44 63
e 52 63
e 54 63
e 61 63
e 12 64
e 14 64
e 22 64
e 23 64
e 24 64
e 27 64
e 32 64
e 35 64
e 47 64
e 63 64
e 5 65
e 9 65
e 10 65
e 18 65
e 27 65
e 29 65
e 31 65
e 62 65
e 4 66
e 12 66
e 14 66
e 23 66
e 28 66
e 40 66
e 45 66
e 49 66
e 1 67
e 5 67
e 15 67
e 16 67
e 24 67
e 32 67
e 34 67
e 40 67
e 47 67
e 49 67
e 61 67
e 1 68
e 20 68
e 38 68
e 42 68
e 43 68
e 44 68
e 56 68
e 63 68
e 1 69
e 3 69
e 5 69
e 29 69
e 34 69
e 36 69
e 39 69
e 41 69
e 54 69
e 66 69
e 11 70
e 27 70
e 32 70
e 33 70
e 36 70
e 46 70
e 55 70
e 60 70
e 66 70
e 69 70
e 1 71
e 4 71
e 20 71
e 24 71
e 28 71
e 42 71
e 45 71
e 52 71
e 59 71
e 63 71
e 67 71
e 68 71
e 3 72
e 8 72
e 12 72
e 15 72
e 23 72
e 24 72
e 29 72
e 30 72
e 41 72
e 45 72
e 55 72
e 60 72
e 62 72
e 70 72
e 71 72
e 12 73
e 21 73
e 35 73
e 36 73
e 38 73
e 39 73
e 40 73
e 45 73
e 52 73
e 55 73
e 64 73
e 12 74
e 23 74
e 26 74
e 30 74
e 59 74
e 60 74
e 61 74
e 3 75
e 4 75
e 14 75
e 25 75
e 26 75
e 30 75
e 35 75
e 50 75
e 56 75
e 57 75
e 59 75
e 62 75
e 63 75
e 67 75
e 2 76
e 6 76
e 7 76
e 29 76
e 34 76
e 43 76
e 58 76
e 61 76
e 21 77
e 27 77
e 28 77
e 39 77
e 46 77
e 52 77
e 54 77
e 58 77
e 59 77
e 61 77
e 67 77
e 72 77
e 1 78
e 2 78
e 10 78
e 11 78
e 18 78
e 26 78
e 27 78
e 29 78
e 32 78
e 34 78
e 62 78
e 3 79
e 7 79
e 20 79
e 25 79
e 27 79
e 31 79
e 33 79
e 41 79
e 42 79
e 66 79
e 73 79
e 77 79
e 5 80
e 6 80
e 8 80
e 12 80
e 16 80
e 37 80
e 58 80
e 59 80
e 66 80
e 70 80
e 71 80
e 76 80
e 78 80
e 9 81
e 11 81
e 28 81
e 40 81
e 43 81
e 48 81
e 58 81
e 1 82
e 3 82
e 15 82
e 26 82
e 35 82
e 65 82
e 67 82
e 69 82
e 77 82
e 78 82
e 1 83
e 2 83
e 9 83
e 15 83
e 22 83
e 29 83
e 43 83
e 56 83
e 63 83
e 74 83
e 75 83
e 78 83
e 82 83
e 1 84
e 8 84
e 16 84
e 20 84
e 30 84
e 34 84
e 39 84
e 51 84
e 52 84
e 68 84
e 72 84
e 73 84
e 4 85
e 5 85
e 16 85
e 20 85
e 23 85
e 29 85
e 41 85
e 55 85
e 58 85
e 62 85
e 72 85
e 10 86
e 17 86
e 23 86
e 26 86
e 35 86
e 36 86
e 37 86
e 42 86
e 43 86
e 45 86
e 46 86
e 48 86
e 50 86
e 51 86
e 53 86
e 57 86
e 59 86
e 62 86
e 64 86
e 66 86
e 74 86
e 80 86
e 6 87
e 9 87
e 11 87
e 21 87
e 34 87
e 63 87
e 68 87
e 70 87
e 73 87
e 75 87
e 82 87
e 2 88
e 7 88
e 15 88
e 24 88
e 27 88
e 66 88
e 69 88
e 79 88
e 80 88
e 11 89
e 18 89
e 19 89
e 33 89
e 39 89
e 41 89
e 43 89
e 47 89
e 53 89
e 71 89
e 75 89
e 79 89
e 32 90
e 35 90
e 40 90
e 41 90
e 53 90
e 55 90
e 56 90
e 62 90
e 64 90
e 70 90
e 78 90
e 88 90
e 4 91
e 10 91
e 19 91
e 20 91
e 21 91
e 23 91
e 30 91
e 33 91
e 37 91
e 40 91
e 41 91
e 48 91
e 49 91
e 52 91
e 55 91
e 57 91
e 59 91
e 73 91
e 82 91
e 5 92
e 9 92
e 21 92
e 24 92
e 28 92
e 31 92
e 38 92
e 41 92
e 51 92
e 61 92
e 65 92
e 71 92
e 72 92
e 79 92
e 83 92
e 6 93
e 8 93
e 10 93
e 13 93
e 19 93
e 27 93
e 34 93
e 36 93
e 37 93
e 41 93
e 42 93
e 56 93
e 57 93
e 62 93
e 65 93
e 75 93
e 77 93
e 79 93
e 83 93
e 85 93
e 89 93
e 8 94
e 15 94
e 17 94
e 24 94
e 33 94
e 34 94
e 36 94
e 50 94
e 68 94
e 70 94
e 71 94
e 72 94
e 75 94
e 78 94
e 1 95
e 3 95
e 9 95
e 12 95
e 21 95
e 25 95
e 28 95
e 35 95
e 36 95
e 44 95
e 45 95
e 55 95
e 57 95
e 60 95
e 64 95
e 66 95
e 80 95
e 89 95
e 91 95
e 92 95
e 4 96
e 10 96
e 22 96
e 27 96
e 29 96
e 30 96
e 37 96
e 46 96
e 48 96
e 49 96
e 62 96
e 70 96
e 76 96
e 80 96
e 8 97
e 20 97
e 24 97
e 27 97
e 37 97
e 49 97
e 58 97
e 67 97
e 68 97
e 77 97
e 78 97
e 81 97
e 83 97
e 87 97
e 5 98
e 7 98
e 12 98
e 24 98
e 33 98
e 35 98
e 46 98
e 56 98
e 63 98
e 65 98
e 69 98
e 78 98
e 87 98
e 92 98
e 7 99
e 18 99
e 37 99
e 50 99
e 53 99
e 54 99
e 61 99
e 62 99
e 67 99
e 69 99
e 82 99
e 97 99
e 5 100
e 9 100
e 11 100
e 13 100
e 21 100
e 23 100
e 47 100
e 54 100
e 67 100
e 72 100
e 79 100
e 84 100
e 88 100
e 95 100
e 98 100
